c Source: TUDataset AIDS, graph #1294
c Original: n=10, m=12
c Augmented: +2 edges, n=10 -> m=14, circuit_rank=5
c Augmented to satisfy Eulerian condition (no parallel edges)
p sp 10
e 4 7
e 6 10
e 1 3
e 7 8
e 5 9
e 6 9
e 3 6
e 5 8
e 7 10
e 1 2
e 2 5
e 1 4
e 1 5
e 6 7
